unsat
(define-fun f ((x (_ BitVec 32))) (_ BitVec 32) (bvxor x (bvsub x #b00000000000000000000000000000001)))
0.23user 0.01system 0:00.25elapsed 99%CPU (0avgtext+0avgdata 38932maxresident)k
0inputs+8outputs (0major+4370minor)pagefaults 0swaps
